&inputpp
outdir = './tmp'
prefix = 'ge'
/
