&INPUT                                                                                                                             
  fildyn = 'fesb2.dyn.xml'                                                                                                         
  zasr = 'crystal'                                                                                                                 
  flfrc = 'fesb2.fc'                                                                                                               
/
