&CONTROL
  prefix = 'fesb2'
  calculation = 'scf'
  wf_collect = .true.
  outdir='./tmp'
  pseudo_dir='/home/sypeng/work/FeSb2/PBE-PM-QE-Finalone/pw-ph-wann-alm/0-data'
  restart_mode = 'from_scratch' 
  tprnfor = .true. 
/
&SYSTEM
  ibrav = 0
  nat = 162
  nbnd = 1600
  ntyp = 2
  ecutwfc = 100
  smearing = 'mp'
  degauss = 0.003
  occupations = 'smearing'
/
&ELECTRONS
  conv_thr = 1.0d-10
  mixing_mode = 'plain'
  mixing_beta = 0.3
  diagonalization = 'david'
  diago_full_acc = .true.
  electron_maxstep = 300
  exx_maxstep = 300
/
ATOMIC_SPECIES
  Fe   55.845  Fe-PBE.upf
  Sb  121.760  Sb-PBE.upf
ATOMIC_POSITIONS crystal
  Fe  0.00000000000000   0.00000000000000   0.00000000000000  
  Fe  0.00000000000000   0.00000000000000   0.33333333333333  
  Fe  0.00000000000000   0.00000000000000   0.66666666666667  
  Fe  0.00000000000000   0.33333333333333   0.00000000000000  
  Fe  0.00000000000000   0.33333333333333   0.33333333333333  
  Fe  0.00000000000000   0.33333333333333   0.66666666666667  
  Fe  0.00000000000000   0.66666666666667   0.00000000000000  
  Fe  0.00000000000000   0.66666666666667   0.33333333333333  
  Fe  0.00000000000000   0.66666666666667   0.66666666666667  
  Fe  0.33333333333333   0.00000000000000   0.00000000000000  
  Fe  0.33333333333333   0.00000000000000   0.33333333333333  
  Fe  0.33333333333333   0.00000000000000   0.66666666666667  
  Fe  0.33333333333333   0.33333333333333   0.00000000000000  
  Fe  0.33333333333333   0.33333333333333   0.33333333333333  
  Fe  0.33333333333333   0.33333333333333   0.66666666666667  
  Fe  0.33333333333333   0.66666666666667   0.00000000000000  
  Fe  0.33333333333333   0.66666666666667   0.33333333333333  
  Fe  0.33333333333333   0.66666666666667   0.66666666666667  
  Fe  0.66666666666667   0.00000000000000   0.00000000000000  
  Fe  0.66666666666667   0.00000000000000   0.33333333333333  
  Fe  0.66666666666667   0.00000000000000   0.66666666666667  
  Fe  0.66666666666667   0.33333333333333   0.00000000000000  
  Fe  0.66666666666667   0.33333333333333   0.33333333333333  
  Fe  0.66666666666667   0.33333333333333   0.66666666666667  
  Fe  0.66666666666667   0.66666666666667   0.00000000000000  
  Fe  0.66666666666667   0.66666666666667   0.33333333333333  
  Fe  0.66666666666667   0.66666666666667   0.66666666666667  
  Fe  0.16666666666667   0.16666666666667   0.16666666666667  
  Fe  0.16666666666667   0.16666666666667   0.50000000000000  
  Fe  0.16666666666667   0.16666666666667   0.83333333333333  
  Fe  0.16666666666667   0.50000000000000   0.16666666666667  
  Fe  0.16666666666667   0.50000000000000   0.50000000000000  
  Fe  0.16666666666667   0.50000000000000   0.83333333333333  
  Fe  0.16666666666667   0.83333333333333   0.16666666666667  
  Fe  0.16666666666667   0.83333333333333   0.50000000000000  
  Fe  0.16666666666667   0.83333333333333   0.83333333333333  
  Fe  0.50000000000000   0.16666666666667   0.16666666666667  
  Fe  0.50000000000000   0.16666666666667   0.50000000000000  
  Fe  0.50000000000000   0.16666666666667   0.83333333333333  
  Fe  0.50000000000000   0.50000000000000   0.16666666666667  
  Fe  0.50000000000000   0.50000000000000   0.50000000000000  
  Fe  0.50000000000000   0.50000000000000   0.83333333333333  
  Fe  0.50000000000000   0.83333333333333   0.16666666666667  
  Fe  0.50000000000000   0.83333333333333   0.50000000000000  
  Fe  0.50000000000000   0.83333333333333   0.83333333333333  
  Fe  0.83333333333333   0.16666666666667   0.16666666666667  
  Fe  0.83333333333333   0.16666666666667   0.50000000000000  
  Fe  0.83333333333333   0.16666666666667   0.83333333333333  
  Fe  0.83333333333333   0.50000000000000   0.16666666666667  
  Fe  0.83333333333333   0.50000000000000   0.50000000000000  
  Fe  0.83333333333333   0.50000000000000   0.83333333333333  
  Fe  0.83333333333333   0.83333333333333   0.16666666666667  
  Fe  0.83333333333333   0.83333333333333   0.50000000000000  
  Fe  0.83333333333333   0.83333333333333   0.83333333333333  
  Sb  0.06345861993333   0.11799307406667   0.00000000000000  
  Sb  0.06345861993333   0.11799307406667   0.33333333333333  
  Sb  0.06345861993333   0.11799307406667   0.66666666666667  
  Sb  0.06345861993333   0.45132640740000   0.00000000000000  
  Sb  0.06345861993333   0.45132640740000   0.33333333333333  
  Sb  0.06345861993333   0.45132640740000   0.66666666666667  
  Sb  0.06345861993333   0.78465974073333   0.00000000000000  
  Sb  0.06345861993333   0.78465974073333   0.33333333333333  
  Sb  0.06345861993333   0.78465974073333   0.66666666666667  
  Sb  0.39679195326667   0.11799307406667   0.00000000000000  
  Sb  0.39679195326667   0.11799307406667   0.33333333333333  
  Sb  0.39679195326667   0.11799307406667   0.66666666666667  
  Sb  0.39679195326667   0.45132640740000   0.00000000000000  
  Sb  0.39679195326667   0.45132640740000   0.33333333333333  
  Sb  0.39679195326667   0.45132640740000   0.66666666666667  
  Sb  0.39679195326667   0.78465974073333   0.00000000000000  
  Sb  0.39679195326667   0.78465974073333   0.33333333333333  
  Sb  0.39679195326667   0.78465974073333   0.66666666666667  
  Sb  0.73012528660000   0.11799307406667   0.00000000000000  
  Sb  0.73012528660000   0.11799307406667   0.33333333333333  
  Sb  0.73012528660000   0.11799307406667   0.66666666666667  
  Sb  0.73012528660000   0.45132640740000   0.00000000000000  
  Sb  0.73012528660000   0.45132640740000   0.33333333333333  
  Sb  0.73012528660000   0.45132640740000   0.66666666666667  
  Sb  0.73012528660000   0.78465974073333   0.00000000000000  
  Sb  0.73012528660000   0.78465974073333   0.33333333333333  
  Sb  0.73012528660000   0.78465974073333   0.66666666666667  
  Sb  0.26987471340000   0.21534025926667   0.00000000000000  
  Sb  0.26987471340000   0.21534025926667   0.33333333333333  
  Sb  0.26987471340000   0.21534025926667   0.66666666666667  
  Sb  0.26987471340000   0.54867359260000   0.00000000000000  
  Sb  0.26987471340000   0.54867359260000   0.33333333333333  
  Sb  0.26987471340000   0.54867359260000   0.66666666666667  
  Sb  0.26987471340000   0.88200692593333   0.00000000000000  
  Sb  0.26987471340000   0.88200692593333   0.33333333333333  
  Sb  0.26987471340000   0.88200692593333   0.66666666666667  
  Sb  0.60320804673333   0.21534025926667   0.00000000000000  
  Sb  0.60320804673333   0.21534025926667   0.33333333333333  
  Sb  0.60320804673333   0.21534025926667   0.66666666666667  
  Sb  0.60320804673333   0.54867359260000   0.00000000000000  
  Sb  0.60320804673333   0.54867359260000   0.33333333333333  
  Sb  0.60320804673333   0.54867359260000   0.66666666666667  
  Sb  0.60320804673333   0.88200692593333   0.00000000000000  
  Sb  0.60320804673333   0.88200692593333   0.33333333333333  
  Sb  0.60320804673333   0.88200692593333   0.66666666666667  
  Sb  0.93654138006667   0.21534025926667   0.00000000000000  
  Sb  0.93654138006667   0.21534025926667   0.33333333333333  
  Sb  0.93654138006667   0.21534025926667   0.66666666666667  
  Sb  0.93654138006667   0.54867359260000   0.00000000000000  
  Sb  0.93654138006667   0.54867359260000   0.33333333333333  
  Sb  0.93654138006667   0.54867359260000   0.66666666666667  
  Sb  0.93654138006667   0.88200692593333   0.00000000000000  
  Sb  0.93654138006667   0.88200692593333   0.33333333333333  
  Sb  0.93654138006667   0.88200692593333   0.66666666666667  
  Sb  0.10320804673333   0.28465974073333   0.16666666666667  
  Sb  0.10320804673333   0.28465974073333   0.50000000000000  
  Sb  0.10320804673333   0.28465974073333   0.83333333333333  
  Sb  0.10320804673333   0.61799307406667   0.16666666666667  
  Sb  0.10320804673333   0.61799307406667   0.50000000000000  
  Sb  0.10320804673333   0.61799307406667   0.83333333333333  
  Sb  0.10320804673333   0.95132640740000   0.16666666666667  
  Sb  0.10320804673333   0.95132640740000   0.50000000000000  
  Sb  0.10320804673333   0.95132640740000   0.83333333333333  
  Sb  0.43654138006667   0.28465974073333   0.16666666666667  
  Sb  0.43654138006667   0.28465974073333   0.50000000000000  
  Sb  0.43654138006667   0.28465974073333   0.83333333333333  
  Sb  0.43654138006667   0.61799307406667   0.16666666666667  
  Sb  0.43654138006667   0.61799307406667   0.50000000000000  
  Sb  0.43654138006667   0.61799307406667   0.83333333333333  
  Sb  0.43654138006667   0.95132640740000   0.16666666666667  
  Sb  0.43654138006667   0.95132640740000   0.50000000000000  
  Sb  0.43654138006667   0.95132640740000   0.83333333333333  
  Sb  0.76987471340000   0.28465974073333   0.16666666666667  
  Sb  0.76987471340000   0.28465974073333   0.50000000000000  
  Sb  0.76987471340000   0.28465974073333   0.83333333333333  
  Sb  0.76987471340000   0.61799307406667   0.16666666666667  
  Sb  0.76987471340000   0.61799307406667   0.50000000000000  
  Sb  0.76987471340000   0.61799307406667   0.83333333333333  
  Sb  0.76987471340000   0.95132640740000   0.16666666666667  
  Sb  0.76987471340000   0.95132640740000   0.50000000000000  
  Sb  0.76987471340000   0.95132640740000   0.83333333333333  
  Sb  0.23012528660000   0.04867359260000   0.16666666666667  
  Sb  0.23012528660000   0.04867359260000   0.50000000000000  
  Sb  0.23012528660000   0.04867359260000   0.83333333333333  
  Sb  0.23012528660000   0.38200692593333   0.16666666666667  
  Sb  0.23012528660000   0.38200692593333   0.50000000000000  
  Sb  0.23012528660000   0.38200692593333   0.83333333333333  
  Sb  0.23012528660000   0.71534025926667   0.16666666666667  
  Sb  0.23012528660000   0.71534025926667   0.50000000000000  
  Sb  0.23012528660000   0.71534025926667   0.83333333333333  
  Sb  0.56345861993333   0.04867359260000   0.16666666666667  
  Sb  0.56345861993333   0.04867359260000   0.50000000000000  
  Sb  0.56345861993333   0.04867359260000   0.83333333333333  
  Sb  0.56345861993333   0.38200692593333   0.16666666666667  
  Sb  0.56345861993333   0.38200692593333   0.50000000000000  
  Sb  0.56345861993333   0.38200692593333   0.83333333333333  
  Sb  0.56345861993333   0.71534025926667   0.16666666666667  
  Sb  0.56345861993333   0.71534025926667   0.50000000000000  
  Sb  0.56345861993333   0.71534025926667   0.83333333333333  
  Sb  0.89679195326667   0.04867359260000   0.16666666666667  
  Sb  0.89679195326667   0.04867359260000   0.50000000000000  
  Sb  0.89679195326667   0.04867359260000   0.83333333333333  
  Sb  0.89679195326667   0.38200692593333   0.16666666666667  
  Sb  0.89679195326667   0.38200692593333   0.50000000000000  
  Sb  0.89679195326667   0.38200692593333   0.83333333333333  
  Sb  0.89679195326667   0.71534025926667   0.16666666666667  
  Sb  0.89679195326667   0.71534025926667   0.50000000000000  
  Sb  0.89679195326667   0.71534025926667   0.83333333333333  
K_POINTS gamma
CELL_PARAMETERS bohr
   33.16697349306877     0.00000000000000   0.000000000000000
    0.000000000000000   37.02139863328924   0.000000000000000
    0.000000000000000    0.00000000000000  17.975749858470003  

