begin projections
 Ge:sp3
end projections
guiding_centres=true 

spinors = .true.

num_bands = 16
num_wann = 16

exclude_bands: 1-36, 53-64

iprint = 2
dis_num_iter =  500
dis_win_min =  -5
dis_win_max =   23.5 !22
dis_froz_min = -5
dis_froz_max  = 14 !17
num_iter  =   5000
mp_grid : 8 8 8 

begin unit_cell_cart
bohr
-5.34500  0.00000  5.34500
 0.00000  5.34500  5.34500
-5.34500  5.34500  0.00000 
end unit_cell_cart

write_u_matrices = .true.
write_xyz = .true.

!restart = plot
!wannier_plot=true


BANDS_PLOT = TRUE
BANDS_PLOT_FORMAT = gnuplot
BANDS_NUM_POINTS = 100

BEGIN KPOINT_PATH
L 0.500 0.500 0.500  G 0.000 0.000 0.000
G 0.000 0.000 0.000  X 0.500 0.000 0.500
X 0.500 0.000 0.500  W 0.500 0.250 0.750
W 0.500 0.250 0.750  K 0.375 0.375 0.750
K 0.375 0.375 0.750  G 0.000 0.000 0.000
END KPOINT_PATH

begin atoms_frac
 Ge    0.00000   0.00000   0.00000
 Ge    -0.25000  0.75000  -0.25000
end atoms_frac

begin kpoints
    0.000000000000000    0.000000000000000    0.000000000000000    0.0019531250
    0.000000000000000    0.000000000000000    0.125000000000000    0.0019531250
    0.000000000000000    0.000000000000000    0.250000000000000    0.0019531250
    0.000000000000000    0.000000000000000    0.375000000000000    0.0019531250
    0.000000000000000    0.000000000000000   -0.500000000000000    0.0019531250
    0.000000000000000    0.000000000000000   -0.375000000000000    0.0019531250
    0.000000000000000    0.000000000000000   -0.250000000000000    0.0019531250
    0.000000000000000    0.000000000000000   -0.125000000000000    0.0019531250
    0.000000000000000    0.125000000000000    0.000000000000000    0.0019531250
    0.000000000000000    0.125000000000000    0.125000000000000    0.0019531250
    0.000000000000000    0.125000000000000    0.250000000000000    0.0019531250
    0.000000000000000    0.125000000000000    0.375000000000000    0.0019531250
    0.000000000000000    0.125000000000000   -0.500000000000000    0.0019531250
    0.000000000000000    0.125000000000000   -0.375000000000000    0.0019531250
    0.000000000000000    0.125000000000000   -0.250000000000000    0.0019531250
    0.000000000000000    0.125000000000000   -0.125000000000000    0.0019531250
    0.000000000000000    0.250000000000000    0.000000000000000    0.0019531250
    0.000000000000000    0.250000000000000    0.125000000000000    0.0019531250
    0.000000000000000    0.250000000000000    0.250000000000000    0.0019531250
    0.000000000000000    0.250000000000000    0.375000000000000    0.0019531250
    0.000000000000000    0.250000000000000   -0.500000000000000    0.0019531250
    0.000000000000000    0.250000000000000   -0.375000000000000    0.0019531250
    0.000000000000000    0.250000000000000   -0.250000000000000    0.0019531250
    0.000000000000000    0.250000000000000   -0.125000000000000    0.0019531250
    0.000000000000000    0.375000000000000    0.000000000000000    0.0019531250
    0.000000000000000    0.375000000000000    0.125000000000000    0.0019531250
    0.000000000000000    0.375000000000000    0.250000000000000    0.0019531250
    0.000000000000000    0.375000000000000    0.375000000000000    0.0019531250
    0.000000000000000    0.375000000000000   -0.500000000000000    0.0019531250
    0.000000000000000    0.375000000000000   -0.375000000000000    0.0019531250
    0.000000000000000    0.375000000000000   -0.250000000000000    0.0019531250
    0.000000000000000    0.375000000000000   -0.125000000000000    0.0019531250
    0.000000000000000   -0.500000000000000    0.000000000000000    0.0019531250
    0.000000000000000   -0.500000000000000    0.125000000000000    0.0019531250
    0.000000000000000   -0.500000000000000    0.250000000000000    0.0019531250
    0.000000000000000   -0.500000000000000    0.375000000000000    0.0019531250
    0.000000000000000   -0.500000000000000   -0.500000000000000    0.0019531250
    0.000000000000000    0.500000000000000   -0.375000000000000    0.0019531250
    0.000000000000000    0.500000000000000   -0.250000000000000    0.0019531250
    0.000000000000000    0.500000000000000   -0.125000000000000    0.0019531250
    0.000000000000000   -0.375000000000000    0.000000000000000    0.0019531250
    0.000000000000000   -0.375000000000000    0.125000000000000    0.0019531250
    0.000000000000000   -0.375000000000000    0.250000000000000    0.0019531250
    0.000000000000000   -0.375000000000000    0.375000000000000    0.0019531250
    0.000000000000000   -0.375000000000000    0.500000000000000    0.0019531250
    0.000000000000000   -0.375000000000000   -0.375000000000000    0.0019531250
    0.000000000000000   -0.375000000000000   -0.250000000000000    0.0019531250
    0.000000000000000   -0.375000000000000   -0.125000000000000    0.0019531250
    0.000000000000000   -0.250000000000000    0.000000000000000    0.0019531250
    0.000000000000000   -0.250000000000000    0.125000000000000    0.0019531250
    0.000000000000000   -0.250000000000000    0.250000000000000    0.0019531250
    0.000000000000000   -0.250000000000000    0.375000000000000    0.0019531250
    0.000000000000000   -0.250000000000000    0.500000000000000    0.0019531250
    0.000000000000000   -0.250000000000000   -0.375000000000000    0.0019531250
    0.000000000000000   -0.250000000000000   -0.250000000000000    0.0019531250
    0.000000000000000   -0.250000000000000   -0.125000000000000    0.0019531250
    0.000000000000000   -0.125000000000000    0.000000000000000    0.0019531250
    0.000000000000000   -0.125000000000000    0.125000000000000    0.0019531250
    0.000000000000000   -0.125000000000000    0.250000000000000    0.0019531250
    0.000000000000000   -0.125000000000000    0.375000000000000    0.0019531250
    0.000000000000000   -0.125000000000000    0.500000000000000    0.0019531250
    0.000000000000000   -0.125000000000000   -0.375000000000000    0.0019531250
    0.000000000000000   -0.125000000000000   -0.250000000000000    0.0019531250
    0.000000000000000   -0.125000000000000   -0.125000000000000    0.0019531250
    0.125000000000000    0.000000000000000    0.000000000000000    0.0019531250
    0.125000000000000    0.000000000000000    0.125000000000000    0.0019531250
    0.125000000000000    0.000000000000000    0.250000000000000    0.0019531250
    0.125000000000000    0.000000000000000    0.375000000000000    0.0019531250
    0.125000000000000    0.000000000000000   -0.500000000000000    0.0019531250
    0.125000000000000    0.000000000000000   -0.375000000000000    0.0019531250
    0.125000000000000    0.000000000000000   -0.250000000000000    0.0019531250
    0.125000000000000    0.000000000000000   -0.125000000000000    0.0019531250
    0.125000000000000    0.125000000000000    0.000000000000000    0.0019531250
    0.125000000000000    0.125000000000000    0.125000000000000    0.0019531250
    0.125000000000000    0.125000000000000    0.250000000000000    0.0019531250
    0.125000000000000    0.125000000000000    0.375000000000000    0.0019531250
    0.125000000000000    0.125000000000000    0.500000000000000    0.0019531250
    0.125000000000000    0.125000000000000    0.625000000000000    0.0019531250
    0.125000000000000    0.125000000000000   -0.250000000000000    0.0019531250
    0.125000000000000    0.125000000000000   -0.125000000000000    0.0019531250
    0.125000000000000    0.250000000000000    0.000000000000000    0.0019531250
    0.125000000000000    0.250000000000000    0.125000000000000    0.0019531250
    0.125000000000000    0.250000000000000    0.250000000000000    0.0019531250
    0.125000000000000    0.250000000000000    0.375000000000000    0.0019531250
    0.125000000000000    0.250000000000000   -0.500000000000000    0.0019531250
    0.125000000000000    0.250000000000000   -0.375000000000000    0.0019531250
    0.125000000000000    0.250000000000000    0.750000000000000    0.0019531250
    0.125000000000000    0.250000000000000   -0.125000000000000    0.0019531250
    0.125000000000000    0.375000000000000    0.000000000000000    0.0019531250
    0.125000000000000    0.375000000000000    0.125000000000000    0.0019531250
    0.125000000000000    0.375000000000000    0.250000000000000    0.0019531250
    0.125000000000000    0.375000000000000    0.375000000000000    0.0019531250
    0.125000000000000    0.375000000000000   -0.500000000000000    0.0019531250
    0.125000000000000    0.375000000000000   -0.375000000000000    0.0019531250
    0.125000000000000    0.375000000000000   -0.250000000000000    0.0019531250
    0.125000000000000   -0.625000000000000   -0.125000000000000    0.0019531250
    0.125000000000000   -0.500000000000000    0.000000000000000    0.0019531250
    0.125000000000000    0.500000000000000    0.125000000000000    0.0019531250
    0.125000000000000   -0.500000000000000    0.250000000000000    0.0019531250
    0.125000000000000   -0.500000000000000    0.375000000000000    0.0019531250
   -0.875000000000000   -0.500000000000000   -0.500000000000000    0.0019531250
    0.125000000000000   -0.500000000000000   -0.375000000000000    0.0019531250
    0.125000000000000    0.500000000000000   -0.250000000000000    0.0019531250
    0.125000000000000    0.500000000000000   -0.125000000000000    0.0019531250
    0.125000000000000   -0.375000000000000    0.000000000000000    0.0019531250
    0.125000000000000    0.625000000000000    0.125000000000000    0.0019531250
    0.125000000000000   -0.375000000000000    0.250000000000000    0.0019531250
    0.125000000000000   -0.375000000000000    0.375000000000000    0.0019531250
    0.125000000000000   -0.375000000000000   -0.500000000000000    0.0019531250
   -0.875000000000000   -0.375000000000000   -0.375000000000000    0.0019531250
    0.125000000000000    0.625000000000000   -0.250000000000000    0.0019531250
    0.125000000000000    0.625000000000000   -0.125000000000000    0.0019531250
    0.125000000000000   -0.250000000000000    0.000000000000000    0.0019531250
    0.125000000000000   -0.250000000000000    0.125000000000000    0.0019531250
    0.125000000000000    0.750000000000000    0.250000000000000    0.0019531250
    0.125000000000000   -0.250000000000000    0.375000000000000    0.0019531250
    0.125000000000000   -0.250000000000000    0.500000000000000    0.0019531250
    0.125000000000000   -0.250000000000000    0.625000000000000    0.0019531250
    0.125000000000000   -0.250000000000000   -0.250000000000000    0.0019531250
    0.125000000000000   -0.250000000000000   -0.125000000000000    0.0019531250
    0.125000000000000   -0.125000000000000    0.000000000000000    0.0019531250
    0.125000000000000   -0.125000000000000    0.125000000000000    0.0019531250
    0.125000000000000   -0.125000000000000    0.250000000000000    0.0019531250
    0.125000000000000   -0.125000000000000   -0.625000000000000    0.0019531250
    0.125000000000000   -0.125000000000000    0.500000000000000    0.0019531250
    0.125000000000000   -0.125000000000000    0.625000000000000    0.0019531250
    0.125000000000000   -0.125000000000000   -0.250000000000000    0.0019531250
    0.125000000000000   -0.125000000000000   -0.125000000000000    0.0019531250
    0.250000000000000    0.000000000000000    0.000000000000000    0.0019531250
    0.250000000000000    0.000000000000000    0.125000000000000    0.0019531250
    0.250000000000000    0.000000000000000    0.250000000000000    0.0019531250
    0.250000000000000    0.000000000000000    0.375000000000000    0.0019531250
    0.250000000000000    0.000000000000000   -0.500000000000000    0.0019531250
    0.250000000000000    0.000000000000000   -0.375000000000000    0.0019531250
    0.250000000000000    0.000000000000000   -0.250000000000000    0.0019531250
    0.250000000000000    0.000000000000000   -0.125000000000000    0.0019531250
    0.250000000000000    0.125000000000000    0.000000000000000    0.0019531250
    0.250000000000000    0.125000000000000    0.125000000000000    0.0019531250
    0.250000000000000    0.125000000000000    0.250000000000000    0.0019531250
    0.250000000000000    0.125000000000000    0.375000000000000    0.0019531250
    0.250000000000000    0.125000000000000   -0.500000000000000    0.0019531250
    0.250000000000000    0.125000000000000   -0.375000000000000    0.0019531250
    0.250000000000000    0.125000000000000    0.750000000000000    0.0019531250
    0.250000000000000    0.125000000000000   -0.125000000000000    0.0019531250
    0.250000000000000    0.250000000000000    0.000000000000000    0.0019531250
    0.250000000000000    0.250000000000000    0.125000000000000    0.0019531250
    0.250000000000000    0.250000000000000    0.250000000000000    0.0019531250
    0.250000000000000    0.250000000000000    0.375000000000000    0.0019531250
    0.250000000000000    0.250000000000000    0.500000000000000    0.0019531250
    0.250000000000000    0.250000000000000    0.625000000000000    0.0019531250
    0.250000000000000    0.250000000000000    0.750000000000000    0.0019531250
    0.250000000000000    0.250000000000000   -0.125000000000000    0.0019531250
    0.250000000000000    0.375000000000000    0.000000000000000    0.0019531250
    0.250000000000000    0.375000000000000    0.125000000000000    0.0019531250
    0.250000000000000    0.375000000000000    0.250000000000000    0.0019531250
    0.250000000000000    0.375000000000000    0.375000000000000    0.0019531250
   -0.750000000000000   -0.625000000000000   -0.500000000000000    0.0019531250
    0.250000000000000    0.375000000000000    0.625000000000000    0.0019531250
    0.250000000000000    0.375000000000000    0.750000000000000    0.0019531250
    0.250000000000000    0.375000000000000    0.875000000000000    0.0019531250
    0.250000000000000   -0.500000000000000    0.000000000000000    0.0019531250
    0.250000000000000   -0.500000000000000    0.125000000000000    0.0019531250
    0.250000000000000    0.500000000000000    0.250000000000000    0.0019531250
   -0.750000000000000   -0.500000000000000   -0.625000000000000    0.0019531250
   -0.750000000000000   -0.500000000000000   -0.500000000000000    0.0019531250
   -0.750000000000000   -0.500000000000000   -0.375000000000000    0.0019531250
    0.250000000000000   -0.500000000000000   -0.250000000000000    0.0019531250
    0.250000000000000   -0.500000000000000   -0.125000000000000    0.0019531250
    0.250000000000000   -0.375000000000000    0.000000000000000    0.0019531250
    0.250000000000000    0.625000000000000    0.125000000000000    0.0019531250
    0.250000000000000    0.625000000000000    0.250000000000000    0.0019531250
    0.250000000000000    0.625000000000000    0.375000000000000    0.0019531250
   -0.750000000000000   -0.375000000000000   -0.500000000000000    0.0019531250
   -0.750000000000000   -0.375000000000000   -0.375000000000000    0.0019531250
   -0.750000000000000   -0.375000000000000   -0.250000000000000    0.0019531250
    0.250000000000000   -0.375000000000000   -0.125000000000000    0.0019531250
    0.250000000000000   -0.250000000000000    0.000000000000000    0.0019531250
    0.250000000000000    0.750000000000000    0.125000000000000    0.0019531250
    0.250000000000000    0.750000000000000    0.250000000000000    0.0019531250
    0.250000000000000    0.750000000000000    0.375000000000000    0.0019531250
    0.250000000000000   -0.250000000000000   -0.500000000000000    0.0019531250
   -0.750000000000000   -0.250000000000000   -0.375000000000000    0.0019531250
   -0.750000000000000   -0.250000000000000   -0.250000000000000    0.0019531250
   -0.750000000000000   -0.250000000000000   -0.125000000000000    0.0019531250
    0.250000000000000   -0.125000000000000    0.000000000000000    0.0019531250
    0.250000000000000   -0.125000000000000    0.125000000000000    0.0019531250
    0.250000000000000   -0.125000000000000    0.250000000000000    0.0019531250
    0.250000000000000   -0.125000000000000   -0.625000000000000    0.0019531250
    0.250000000000000   -0.125000000000000   -0.500000000000000    0.0019531250
    0.250000000000000   -0.125000000000000   -0.375000000000000    0.0019531250
   -0.750000000000000   -0.125000000000000   -0.250000000000000    0.0019531250
    0.250000000000000   -0.125000000000000   -0.125000000000000    0.0019531250
    0.375000000000000    0.000000000000000    0.000000000000000    0.0019531250
    0.375000000000000    0.000000000000000    0.125000000000000    0.0019531250
    0.375000000000000    0.000000000000000    0.250000000000000    0.0019531250
    0.375000000000000    0.000000000000000    0.375000000000000    0.0019531250
    0.375000000000000    0.000000000000000   -0.500000000000000    0.0019531250
    0.375000000000000    0.000000000000000   -0.375000000000000    0.0019531250
    0.375000000000000    0.000000000000000   -0.250000000000000    0.0019531250
    0.375000000000000    0.000000000000000   -0.125000000000000    0.0019531250
    0.375000000000000    0.125000000000000    0.000000000000000    0.0019531250
    0.375000000000000    0.125000000000000    0.125000000000000    0.0019531250
    0.375000000000000    0.125000000000000    0.250000000000000    0.0019531250
    0.375000000000000    0.125000000000000    0.375000000000000    0.0019531250
    0.375000000000000    0.125000000000000   -0.500000000000000    0.0019531250
    0.375000000000000    0.125000000000000   -0.375000000000000    0.0019531250
    0.375000000000000    0.125000000000000   -0.250000000000000    0.0019531250
   -0.625000000000000    0.125000000000000   -0.125000000000000    0.0019531250
    0.375000000000000    0.250000000000000    0.000000000000000    0.0019531250
    0.375000000000000    0.250000000000000    0.125000000000000    0.0019531250
    0.375000000000000    0.250000000000000    0.250000000000000    0.0019531250
    0.375000000000000    0.250000000000000    0.375000000000000    0.0019531250
   -0.625000000000000   -0.750000000000000   -0.500000000000000    0.0019531250
    0.375000000000000    0.250000000000000    0.625000000000000    0.0019531250
    0.375000000000000    0.250000000000000    0.750000000000000    0.0019531250
   -0.625000000000000    0.250000000000000   -0.125000000000000    0.0019531250
    0.375000000000000    0.375000000000000    0.000000000000000    0.0019531250
    0.375000000000000    0.375000000000000    0.125000000000000    0.0019531250
    0.375000000000000    0.375000000000000    0.250000000000000    0.0019531250
    0.375000000000000    0.375000000000000    0.375000000000000    0.0019531250
    0.375000000000000    0.375000000000000    0.500000000000000    0.0019531250
    0.375000000000000    0.375000000000000    0.625000000000000    0.0019531250
    0.375000000000000    0.375000000000000    0.750000000000000    0.0019531250
    0.375000000000000    0.375000000000000    0.875000000000000    0.0019531250
    0.375000000000000   -0.500000000000000    0.000000000000000    0.0019531250
    0.375000000000000   -0.500000000000000    0.125000000000000    0.0019531250
   -0.625000000000000   -0.500000000000000   -0.750000000000000    0.0019531250
    0.375000000000000    0.500000000000000    0.375000000000000    0.0019531250
   -0.625000000000000   -0.500000000000000   -0.500000000000000    0.0019531250
   -0.625000000000000   -0.500000000000000   -0.375000000000000    0.0019531250
    0.375000000000000    0.500000000000000    0.750000000000000    0.0019531250
   -0.625000000000000   -0.500000000000000   -0.125000000000000    0.0019531250
    0.375000000000000   -0.375000000000000    0.000000000000000    0.0019531250
    0.375000000000000   -0.375000000000000    0.125000000000000    0.0019531250
    0.375000000000000    0.625000000000000    0.250000000000000    0.0019531250
    0.375000000000000    0.625000000000000    0.375000000000000    0.0019531250
   -0.625000000000000   -0.375000000000000   -0.500000000000000    0.0019531250
   -0.625000000000000   -0.375000000000000   -0.375000000000000    0.0019531250
   -0.625000000000000   -0.375000000000000   -0.250000000000000    0.0019531250
    0.375000000000000   -0.375000000000000   -0.125000000000000    0.0019531250
    0.375000000000000   -0.250000000000000    0.000000000000000    0.0019531250
    0.375000000000000   -0.250000000000000    0.125000000000000    0.0019531250
    0.375000000000000    0.750000000000000    0.250000000000000    0.0019531250
    0.375000000000000    0.750000000000000    0.375000000000000    0.0019531250
    0.375000000000000    0.750000000000000    0.500000000000000    0.0019531250
   -0.625000000000000   -0.250000000000000   -0.375000000000000    0.0019531250
   -0.625000000000000   -0.250000000000000   -0.250000000000000    0.0019531250
   -0.625000000000000   -0.250000000000000   -0.125000000000000    0.0019531250
    0.375000000000000   -0.125000000000000    0.000000000000000    0.0019531250
   -0.625000000000000   -0.125000000000000    0.125000000000000    0.0019531250
    0.375000000000000    0.875000000000000    0.250000000000000    0.0019531250
    0.375000000000000    0.875000000000000    0.375000000000000    0.0019531250
    0.375000000000000   -0.125000000000000    0.500000000000000    0.0019531250
    0.375000000000000   -0.125000000000000   -0.375000000000000    0.0019531250
   -0.625000000000000   -0.125000000000000   -0.250000000000000    0.0019531250
   -0.625000000000000   -0.125000000000000   -0.125000000000000    0.0019531250
   -0.500000000000000    0.000000000000000    0.000000000000000    0.0019531250
   -0.500000000000000    0.000000000000000    0.125000000000000    0.0019531250
   -0.500000000000000    0.000000000000000    0.250000000000000    0.0019531250
   -0.500000000000000    0.000000000000000    0.375000000000000    0.0019531250
    0.500000000000000    0.000000000000000    0.500000000000000    0.0019531250
    0.500000000000000    0.000000000000000   -0.375000000000000    0.0019531250
    0.500000000000000    0.000000000000000   -0.250000000000000    0.0019531250
    0.500000000000000    0.000000000000000   -0.125000000000000    0.0019531250
   -0.500000000000000    0.125000000000000    0.000000000000000    0.0019531250
    0.500000000000000    0.125000000000000    0.125000000000000    0.0019531250
   -0.500000000000000    0.125000000000000    0.250000000000000    0.0019531250
   -0.500000000000000   -0.875000000000000   -0.625000000000000    0.0019531250
   -0.500000000000000   -0.875000000000000   -0.500000000000000    0.0019531250
   -0.500000000000000    0.125000000000000   -0.375000000000000    0.0019531250
    0.500000000000000    0.125000000000000   -0.250000000000000    0.0019531250
    0.500000000000000    0.125000000000000   -0.125000000000000    0.0019531250
   -0.500000000000000    0.250000000000000    0.000000000000000    0.0019531250
   -0.500000000000000    0.250000000000000    0.125000000000000    0.0019531250
    0.500000000000000    0.250000000000000    0.250000000000000    0.0019531250
   -0.500000000000000   -0.750000000000000   -0.625000000000000    0.0019531250
   -0.500000000000000   -0.750000000000000   -0.500000000000000    0.0019531250
   -0.500000000000000   -0.750000000000000   -0.375000000000000    0.0019531250
   -0.500000000000000    0.250000000000000   -0.250000000000000    0.0019531250
   -0.500000000000000    0.250000000000000   -0.125000000000000    0.0019531250
   -0.500000000000000    0.375000000000000    0.000000000000000    0.0019531250
   -0.500000000000000    0.375000000000000    0.125000000000000    0.0019531250
   -0.500000000000000   -0.625000000000000   -0.750000000000000    0.0019531250
    0.500000000000000    0.375000000000000    0.375000000000000    0.0019531250
   -0.500000000000000   -0.625000000000000   -0.500000000000000    0.0019531250
   -0.500000000000000   -0.625000000000000   -0.375000000000000    0.0019531250
    0.500000000000000    0.375000000000000    0.750000000000000    0.0019531250
   -0.500000000000000   -0.625000000000000   -0.125000000000000    0.0019531250
   -0.500000000000000   -0.500000000000000    0.000000000000000    0.0019531250
   -0.500000000000000   -0.500000000000000   -0.875000000000000    0.0019531250
   -0.500000000000000   -0.500000000000000   -0.750000000000000    0.0019531250
   -0.500000000000000   -0.500000000000000   -0.625000000000000    0.0019531250
    0.500000000000000    0.500000000000000    0.500000000000000    0.0019531250
    0.500000000000000    0.500000000000000    0.625000000000000    0.0019531250
    0.500000000000000    0.500000000000000    0.750000000000000    0.0019531250
    0.500000000000000    0.500000000000000    0.875000000000000    0.0019531250
    0.500000000000000   -0.375000000000000    0.000000000000000    0.0019531250
    0.500000000000000    0.625000000000000    0.125000000000000    0.0019531250
   -0.500000000000000   -0.375000000000000   -0.750000000000000    0.0019531250
    0.500000000000000    0.625000000000000    0.375000000000000    0.0019531250
    0.500000000000000    0.625000000000000    0.500000000000000    0.0019531250
   -0.500000000000000   -0.375000000000000   -0.375000000000000    0.0019531250
    0.500000000000000    0.625000000000000    0.750000000000000    0.0019531250
    0.500000000000000   -0.375000000000000   -0.125000000000000    0.0019531250
    0.500000000000000   -0.250000000000000    0.000000000000000    0.0019531250
    0.500000000000000   -0.250000000000000    0.125000000000000    0.0019531250
    0.500000000000000   -0.250000000000000    0.250000000000000    0.0019531250
    0.500000000000000    0.750000000000000    0.375000000000000    0.0019531250
    0.500000000000000    0.750000000000000    0.500000000000000    0.0019531250
    0.500000000000000    0.750000000000000    0.625000000000000    0.0019531250
   -0.500000000000000   -0.250000000000000   -0.250000000000000    0.0019531250
    0.500000000000000   -0.250000000000000   -0.125000000000000    0.0019531250
    0.500000000000000   -0.125000000000000    0.000000000000000    0.0019531250
   -0.500000000000000   -0.125000000000000    0.125000000000000    0.0019531250
   -0.500000000000000   -0.125000000000000    0.250000000000000    0.0019531250
    0.500000000000000   -0.125000000000000    0.375000000000000    0.0019531250
    0.500000000000000    0.875000000000000    0.500000000000000    0.0019531250
    0.500000000000000    0.875000000000000    0.625000000000000    0.0019531250
    0.500000000000000   -0.125000000000000   -0.250000000000000    0.0019531250
   -0.500000000000000   -0.125000000000000   -0.125000000000000    0.0019531250
   -0.375000000000000    0.000000000000000    0.000000000000000    0.0019531250
   -0.375000000000000    0.000000000000000    0.125000000000000    0.0019531250
   -0.375000000000000    0.000000000000000    0.250000000000000    0.0019531250
   -0.375000000000000    0.000000000000000    0.375000000000000    0.0019531250
   -0.375000000000000    0.000000000000000    0.500000000000000    0.0019531250
   -0.375000000000000    0.000000000000000   -0.375000000000000    0.0019531250
   -0.375000000000000    0.000000000000000   -0.250000000000000    0.0019531250
   -0.375000000000000    0.000000000000000   -0.125000000000000    0.0019531250
   -0.375000000000000    0.125000000000000    0.000000000000000    0.0019531250
    0.625000000000000    0.125000000000000    0.125000000000000    0.0019531250
    0.625000000000000    0.125000000000000    0.250000000000000    0.0019531250
   -0.375000000000000    0.125000000000000    0.375000000000000    0.0019531250
   -0.375000000000000    0.125000000000000   -0.500000000000000    0.0019531250
   -0.375000000000000   -0.875000000000000   -0.375000000000000    0.0019531250
   -0.375000000000000   -0.875000000000000   -0.250000000000000    0.0019531250
    0.625000000000000    0.125000000000000   -0.125000000000000    0.0019531250
   -0.375000000000000    0.250000000000000    0.000000000000000    0.0019531250
    0.625000000000000    0.250000000000000    0.125000000000000    0.0019531250
    0.625000000000000    0.250000000000000    0.250000000000000    0.0019531250
    0.625000000000000    0.250000000000000    0.375000000000000    0.0019531250
   -0.375000000000000   -0.750000000000000   -0.500000000000000    0.0019531250
   -0.375000000000000   -0.750000000000000   -0.375000000000000    0.0019531250
   -0.375000000000000   -0.750000000000000   -0.250000000000000    0.0019531250
   -0.375000000000000    0.250000000000000   -0.125000000000000    0.0019531250
   -0.375000000000000    0.375000000000000    0.000000000000000    0.0019531250
   -0.375000000000000    0.375000000000000    0.125000000000000    0.0019531250
    0.625000000000000    0.375000000000000    0.250000000000000    0.0019531250
    0.625000000000000    0.375000000000000    0.375000000000000    0.0019531250
    0.625000000000000    0.375000000000000    0.500000000000000    0.0019531250
   -0.375000000000000   -0.625000000000000   -0.375000000000000    0.0019531250
   -0.375000000000000   -0.625000000000000   -0.250000000000000    0.0019531250
   -0.375000000000000    0.375000000000000   -0.125000000000000    0.0019531250
   -0.375000000000000    0.500000000000000    0.000000000000000    0.0019531250
    0.625000000000000    0.500000000000000    0.125000000000000    0.0019531250
   -0.375000000000000   -0.500000000000000   -0.750000000000000    0.0019531250
    0.625000000000000    0.500000000000000    0.375000000000000    0.0019531250
    0.625000000000000    0.500000000000000    0.500000000000000    0.0019531250
   -0.375000000000000   -0.500000000000000   -0.375000000000000    0.0019531250
    0.625000000000000    0.500000000000000    0.750000000000000    0.0019531250
   -0.375000000000000    0.500000000000000   -0.125000000000000    0.0019531250
   -0.375000000000000   -0.375000000000000    0.000000000000000    0.0019531250
   -0.375000000000000   -0.375000000000000   -0.875000000000000    0.0019531250
   -0.375000000000000   -0.375000000000000   -0.750000000000000    0.0019531250