System=tdep

ISTART   = 0
ICHARG = 2
ENCUT=600
PREC=Accurate
MAGMOM = 960*0
#LSORBIT=.TRUE.
LWAVE=.FALSE.
LREAL=Auto
ALGO = fast

EDIFF=1E-6
EDIFFG=-0.01

NELM = 200

ISIF=2
NSW=0
POTIM=0.2
ISMEAR=0
#IBRION=2
LEPSILON=.TRUE.
LCALCEPS=.True.

#parallel
LPLANE = .TRUE.
#NPAR = 8
#NCORE  = 8
#LSCALU = .FALSE.
#NSIM   = 4

#PBE-sol
#GGA=PS

LORBIT=11
#LVTOT=.TRUE.

##van der Waals 
#LUSE_VDW=.TURE.
#AGGAC=0.0000
##
#GGA = MK
#PARAM1 = 0.1234
#PARAM2 = 1.0000

#LSORBIT=T
