&CONTROL
  prefix = 'tio2'
  calculation = 'bands'
  outdir='./tmp'
  wfcdir='./tmp'
  pseudo_dir='/home/sypeng/work/anatase-tio2/pbesol/pw-ph-wan/pp'
/
&SYSTEM
  ibrav = 7  !BCT 
  celldm(1) =      7.151101207602957
  celldm(3) =      2.5142962845515564
  nat = 6
  ntyp = 2
  ecutwfc = 85.0
  nbnd = 40
/
&BANDS
  prefix='tio2'
  outdir='./tmp'
  lsym=.true.,
  filband='anatase_bands.dat'
/
&ELECTRONS
  conv_thr = 1.0d-10
  mixing_mode = 'plain'
/
&IONS
/
&CELL
/
ATOMIC_SPECIES
  Ti   47.867  Ti.upf
  O    15.999 O.upf
ATOMIC_POSITIONS crystal
Ti            0.0000000000        0.0000000000        0.0000000000
Ti            0.5000000000        0.7500000000        0.2500000000
O             0.5000000000        0.9578884365        0.4578884365
O             0.0000000000        0.7921115635        0.7921115635
O             0.5000000000        0.5421115635        0.0421115635
O             0.0000000000        0.2078884365        0.2078884365
K_POINTS {crystal_b}
6
 0.500  0.500  0.500  40 !Z
 0.000  0.000  0.000  30 !G
 0.000  0.500 -0.500  20 !X
 0.250  0.750 -0.250  20 !P
 0.500  0.500  0.000  30 !N
 0.000  0.000  0.000  1  !G
