&CONTROL
 prefix = 'NbMgO'
 calculation = 'bands'
 outdir='./tmp'
 pseudo_dir='../pseudo'
 verbosity ='high'
/
&SYSTEM
  ibrav = 0
  nat = 18
  nbnd = 96
  ntyp = 3
  ecutwfc = 80.0
  smearing = 'mp'
  degauss = 0.005
  occupations = 'smearing'
/
&ELECTRONS
  conv_thr = 1.0d-11
  mixing_mode = 'plain'
  mixing_beta = 0.7
  diagonalization = 'david'
  diago_full_acc = .true.
/
&BANDS
  prefix = 'NbMgO'
  outdir = './tmp'
  filband = 'NbMgO_nosoc_bands.dat'
/
ATOMIC_SPECIES
  Nb  92.906 Nb.upf
  Mg  24.305 Mg.upf
  O   15.999  O.upf
CELL_PARAMETERS { angstrom }
     6.0101900000000000    0.0000000000000000    0.0000000000000000
     3.0050950000000000    5.2049772215711950    0.0000000000000000
     0.0000000000000000    0.0000000000000000    7.3609499931000000
ATOMIC_POSITIONS crystal
Nb            0.0000003180        0.5000003580        0.8333136514             
Nb            0.5000003580        0.0000003180        0.8333136514             
Nb            0.5000003580        0.5000003580        0.8333136514             
Mg            0.6538420390        0.1730794720        0.1845818247
Mg            0.3461519544        0.8269245143        0.4821666071
Mg            0.1730794720        0.6538420390        0.1845818247
Mg            0.8269245143        0.3461519544        0.4821666071
Mg            0.1730794720        0.1730794720        0.1845818247
Mg            0.8269245143        0.8269245143        0.4821666071
O             0.3446163983        0.8276913089       -0.0128531790
O             0.8276913089        0.3446163983       -0.0128531790
O             0.8276913089        0.8276913089       -0.0128531790
O             0.9999943935        0.5000022963        0.3333358502
O             0.6553874163        0.1723058003        0.6794532346
O             0.5000022963        0.9999943935        0.3333358502
O             0.1723058003        0.6553874163        0.6794532346
O             0.5000022963        0.5000022963        0.3333358502
O             0.1723058003        0.1723058003        0.6794532346
K_POINTS {crystal_b}
4
      0.0000     0.0000     0.0000  50 !G
      0.3333    -0.3333     0.0000  50 !K
      0.5000     0.0000     0.0000  50 !M
      0.0000     0.0000     0.0000  50 !G
