&CONTROL
  prefix = 'si'
  calculation = 'scf'
  wf_collect = .true.
  outdir='./tmp'
                restart_mode = 'from_scratch' 
                     pseudo_dir = '/home/sypeng/work/silicon/alamode-PBE/alamode-prim-444/data'
                     tprnfor = .true. 
                     tstress = .true.
/
&SYSTEM
  ibrav = 2
  celldm(1) = 41.3472076  
  nat = 128
  ntyp = 1
  ecutwfc = 60.0
                     occupations = 'smearing',
                    smearing = 'gauss',
                     degauss = 0.001,
/
&ELECTRONS
             electron_maxstep= 1000,
                     conv_thr= 1.0d-12
  mixing_mode = 'plain'
  mixing_beta = 0.7
  diagonalization = 'david'
  diago_full_acc = .true.
/
&IONS
/
&CELL
press_conv_thr = 0.01
/
ATOMIC_SPECIES
  Si   28.085  Si.rel-pbe-rrkj.UPF 
ATOMIC_POSITIONS crystal
 Si    0.000000000         0.000000000         0.000000000
 Si    0.000000000         0.000000000         0.250000000
 Si    0.000000000         0.000000000         0.500000000
 Si    0.000000000         0.000000000         0.750000000
 Si    0.000000000         0.250000000         0.000000000
 Si    0.000000000         0.250000000         0.250000000
 Si    0.000000000         0.250000000         0.500000000
 Si    0.000000000         0.250000000         0.750000000
 Si    0.000000000         0.500000000         0.000000000
 Si    0.000000000         0.500000000         0.250000000
 Si    0.000000000         0.500000000         0.500000000
 Si    0.000000000         0.500000000         0.750000000
 Si    0.000000000         0.750000000         0.000000000
 Si    0.000000000         0.750000000         0.250000000
 Si    0.000000000         0.750000000         0.500000000
 Si    0.000000000         0.750000000         0.750000000
 Si    0.250000000         0.000000000         0.000000000
 Si    0.250000000         0.000000000         0.250000000
 Si    0.250000000         0.000000000         0.500000000
 Si    0.250000000         0.000000000         0.750000000
 Si    0.250000000         0.250000000         0.000000000
 Si    0.250000000         0.250000000         0.250000000
 Si    0.250000000         0.250000000         0.500000000
 Si    0.250000000         0.250000000         0.750000000
 Si    0.250000000         0.500000000         0.000000000
 Si    0.250000000         0.500000000         0.250000000
 Si    0.250000000         0.500000000         0.500000000
 Si    0.250000000         0.500000000         0.750000000
 Si    0.250000000         0.750000000         0.000000000
 Si    0.250000000         0.750000000         0.250000000
 Si    0.250000000         0.750000000         0.500000000
 Si    0.250000000         0.750000000         0.750000000
 Si    0.500000000         0.000000000         0.000000000
 Si    0.500000000         0.000000000         0.250000000
 Si    0.500000000         0.000000000         0.500000000
 Si    0.500000000         0.000000000         0.750000000
 Si    0.500000000         0.250000000         0.000000000
 Si    0.500000000         0.250000000         0.250000000
 Si    0.500000000         0.250000000         0.500000000
 Si    0.500000000         0.250000000         0.750000000
 Si    0.500000000         0.500000000         0.000000000
 Si    0.500000000         0.500000000         0.250000000
 Si    0.500000000         0.500000000         0.500000000
 Si    0.500000000         0.500000000         0.750000000
 Si    0.500000000         0.750000000         0.000000000
 Si    0.500000000         0.750000000         0.250000000
 Si    0.500000000         0.750000000         0.500000000
 Si    0.500000000         0.750000000         0.750000000
 Si    0.750000000         0.000000000         0.000000000
 Si    0.750000000         0.000000000         0.250000000
 Si    0.750000000         0.000000000         0.500000000
 Si    0.750000000         0.000000000         0.750000000
 Si    0.750000000         0.250000000         0.000000000
 Si    0.750000000         0.250000000         0.250000000
 Si    0.750000000         0.250000000         0.500000000
 Si    0.750000000         0.250000000         0.750000000
 Si    0.750000000         0.500000000         0.000000000
 Si    0.750000000         0.500000000         0.250000000
 Si    0.750000000         0.500000000         0.500000000
 Si    0.750000000         0.500000000         0.750000000
 Si    0.750000000         0.750000000         0.000000000
 Si    0.750000000         0.750000000         0.250000000
 Si    0.750000000         0.750000000         0.500000000
 Si    0.750000000         0.750000000         0.750000000
 Si    0.187500000         0.187500000         0.187500000
 Si    0.187500000         0.187500000         0.437500000
 Si    0.187500000         0.187500000         0.687500000
 Si    0.187500000         0.187500000         0.937500000
 Si    0.187500000         0.437500000         0.187500000
 Si    0.187500000         0.437500000         0.437500000
 Si    0.187500000         0.437500000         0.687500000
 Si    0.187500000         0.437500000         0.937500000
 Si    0.187500000         0.687500000         0.187500000
 Si    0.187500000         0.687500000         0.437500000
 Si    0.187500000         0.687500000         0.687500000
 Si    0.187500000         0.687500000         0.937500000
 Si    0.187500000         0.937500000         0.187500000
 Si    0.187500000         0.937500000         0.437500000
 Si    0.187500000         0.937500000         0.687500000
 Si    0.187500000         0.937500000         0.937500000
 Si    0.437500000         0.187500000         0.187500000
 Si    0.437500000         0.187500000         0.437500000
 Si    0.437500000         0.187500000         0.687500000
 Si    0.437500000         0.187500000         0.937500000
 Si    0.437500000         0.437500000         0.187500000
 Si    0.437500000         0.437500000         0.437500000
 Si    0.437500000         0.437500000         0.687500000
 Si    0.437500000         0.437500000         0.937500000
 Si    0.437500000         0.687500000         0.187500000
 Si    0.437500000         0.687500000         0.437500000
 Si    0.437500000         0.687500000         0.687500000
 Si    0.437500000         0.687500000         0.937500000
 Si    0.437500000         0.937500000         0.187500000
 Si    0.437500000         0.937500000         0.437500000
 Si    0.437500000         0.937500000         0.687500000
 Si    0.437500000         0.937500000         0.937500000
 Si    0.687500000         0.187500000         0.187500000
 Si    0.687500000         0.187500000         0.437500000
 Si    0.687500000         0.187500000         0.687500000
 Si    0.687500000         0.187500000         0.937500000
 Si    0.687500000         0.437500000         0.187500000
 Si    0.687500000         0.437500000         0.437500000
 Si    0.687500000         0.437500000         0.687500000
 Si    0.687500000         0.437500000         0.937500000
 Si    0.687500000         0.687500000         0.187500000
 Si    0.687500000         0.687500000         0.437500000
 Si    0.687500000         0.687500000         0.687500000
 Si    0.687500000         0.687500000         0.937500000
 Si    0.687500000         0.937500000         0.187500000
 Si    0.687500000         0.937500000         0.437500000
 Si    0.687500000         0.937500000         0.687500000
 Si    0.687500000         0.937500000         0.937500000
 Si    0.937500000         0.187500000         0.187500000
 Si    0.937500000         0.187500000         0.437500000
 Si    0.937500000         0.187500000         0.687500000
 Si    0.937500000         0.187500000         0.937500000
 Si    0.937500000         0.437500000         0.187500000
 Si    0.937500000         0.437500000         0.437500000
 Si    0.937500000         0.437500000         0.687500000
 Si    0.937500000         0.437500000         0.937500000
 Si    0.937500000         0.687500000         0.187500000
 Si    0.937500000         0.687500000         0.437500000
 Si    0.937500000         0.687500000         0.687500000
 Si    0.937500000         0.687500000         0.937500000
 Si    0.937500000         0.937500000         0.187500000
 Si    0.937500000         0.937500000         0.437500000
 Si    0.937500000         0.937500000         0.687500000
 Si    0.937500000         0.937500000         0.937500000
K_POINTS (automatic)
 4 4 4 1 1 1
