&CONTROL
  prefix = 'diamond'
  calculation = 'scf'
  wf_collect = .true.
  outdir='./tmp'
  pseudo_dir='/global/cfs/cdirs/m2626/sypeng/work/diamond/USPP-PBE-PM-QE/pw-ph-wann-alm/0-data/'
  etot_conv_thr = 1.0E-5 ,
  forc_conv_thr = 1.0D-4 ,
  restart_mode = 'from_scratch' 
  tprnfor = .true. 
/
&SYSTEM
  ibrav = 0
  nat = 250
  ntyp = 1
  ecutwfc = 60
  ecutrho = 600
  occupations = 'fixed'
/

&ELECTRONS
  conv_thr = 1.0d-13
  mixing_mode = 'plain'
  mixing_beta = 0.5
  diagonalization = 'david'
  diago_full_acc = .true.
  electron_maxstep = 300
  exx_maxstep = 300
/
&IONS
/
&CELL
press_conv_thr = 0.1
/
ATOMIC_SPECIES
  C   12.011  c_pbe_v1.2.uspp.F.UPF
CELL_PARAMETERS angstrom
     0.0000000000000000    8.8675000000000000    8.8675000000000000
     8.8675000000000000    0.0000000000000000    8.8675000000000000
     8.8675000000000000    8.8675000000000000    0.0000000000000000
ATOMIC_POSITIONS crystal
  C  0.10000000000000   0.10000000000000   0.10000000000000  
  C  0.10000000000000   0.10000000000000   0.30000000000000  
  C  0.10000000000000   0.10000000000000   0.50000000000000  
  C  0.10000000000000   0.10000000000000   0.70000000000000  
  C  0.10000000000000   0.10000000000000   0.90000000000000  
  C  0.10000000000000   0.30000000000000   0.10000000000000  
  C  0.10000000000000   0.30000000000000   0.30000000000000  
  C  0.10000000000000   0.30000000000000   0.50000000000000  
  C  0.10000000000000   0.30000000000000   0.70000000000000  
  C  0.10000000000000   0.30000000000000   0.90000000000000  
  C  0.10000000000000   0.50000000000000   0.10000000000000  
  C  0.10000000000000   0.50000000000000   0.30000000000000  
  C  0.10000000000000   0.50000000000000   0.50000000000000  
  C  0.10000000000000   0.50000000000000   0.70000000000000  
  C  0.10000000000000   0.50000000000000   0.90000000000000  
  C  0.10000000000000   0.70000000000000   0.10000000000000  
  C  0.10000000000000   0.70000000000000   0.30000000000000  
  C  0.10000000000000   0.70000000000000   0.50000000000000  
  C  0.10000000000000   0.70000000000000   0.70000000000000  
  C  0.10000000000000   0.70000000000000   0.90000000000000  
  C  0.10000000000000   0.90000000000000   0.10000000000000  
  C  0.10000000000000   0.90000000000000   0.30000000000000  
  C  0.10000000000000   0.90000000000000   0.50000000000000  
  C  0.10000000000000   0.90000000000000   0.70000000000000  
  C  0.10000000000000   0.90000000000000   0.90000000000000  
  C  0.30000000000000   0.10000000000000   0.10000000000000  
  C  0.30000000000000   0.10000000000000   0.30000000000000  
  C  0.30000000000000   0.10000000000000   0.50000000000000  
  C  0.30000000000000   0.10000000000000   0.70000000000000  
  C  0.30000000000000   0.10000000000000   0.90000000000000  
  C  0.30000000000000   0.30000000000000   0.10000000000000  
  C  0.30000000000000   0.30000000000000   0.30000000000000  
  C  0.30000000000000   0.30000000000000   0.50000000000000  
  C  0.30000000000000   0.30000000000000   0.70000000000000  
  C  0.30000000000000   0.30000000000000   0.90000000000000  
  C  0.30000000000000   0.50000000000000   0.10000000000000  
  C  0.30000000000000   0.50000000000000   0.30000000000000  
  C  0.30000000000000   0.50000000000000   0.50000000000000  
  C  0.30000000000000   0.50000000000000   0.70000000000000  
  C  0.30000000000000   0.50000000000000   0.90000000000000  
  C  0.30000000000000   0.70000000000000   0.10000000000000  
  C  0.30000000000000   0.70000000000000   0.30000000000000  
  C  0.30000000000000   0.70000000000000   0.50000000000000  
  C  0.30000000000000   0.70000000000000   0.70000000000000  
  C  0.30000000000000   0.70000000000000   0.90000000000000  
  C  0.30000000000000   0.90000000000000   0.10000000000000  
  C  0.30000000000000   0.90000000000000   0.30000000000000  
  C  0.30000000000000   0.90000000000000   0.50000000000000  
  C  0.30000000000000   0.90000000000000   0.70000000000000  
  C  0.30000000000000   0.90000000000000   0.90000000000000  
  C  0.50000000000000   0.10000000000000   0.10000000000000  
  C  0.50000000000000   0.10000000000000   0.30000000000000  
  C  0.50000000000000   0.10000000000000   0.50000000000000  
  C  0.50000000000000   0.10000000000000   0.70000000000000  
  C  0.50000000000000   0.10000000000000   0.90000000000000  
  C  0.50000000000000   0.30000000000000   0.10000000000000  
  C  0.50000000000000   0.30000000000000   0.30000000000000  
  C  0.50000000000000   0.30000000000000   0.50000000000000  
  C  0.50000000000000   0.30000000000000   0.70000000000000  
  C  0.50000000000000   0.30000000000000   0.90000000000000  
  C  0.50000000000000   0.50000000000000   0.10000000000000  
  C  0.50000000000000   0.50000000000000   0.30000000000000  
  C  0.50000000000000   0.50000000000000   0.50000000000000  
  C  0.50000000000000   0.50000000000000   0.70000000000000  
  C  0.50000000000000   0.50000000000000   0.90000000000000  
  C  0.50000000000000   0.70000000000000   0.10000000000000  
  C  0.50000000000000   0.70000000000000   0.30000000000000  
  C  0.50000000000000   0.70000000000000   0.50000000000000  
  C  0.50000000000000   0.70000000000000   0.70000000000000  
  C  0.50000000000000   0.70000000000000   0.90000000000000  
  C  0.50000000000000   0.90000000000000   0.10000000000000  
  C  0.50000000000000   0.90000000000000   0.30000000000000  
  C  0.50000000000000   0.90000000000000   0.50000000000000  
  C  0.50000000000000   0.90000000000000   0.70000000000000  
  C  0.50000000000000   0.90000000000000   0.90000000000000  
  C  0.70000000000000   0.10000000000000   0.10000000000000  
  C  0.70000000000000   0.10000000000000   0.30000000000000  
  C  0.70000000000000   0.10000000000000   0.50000000000000  
  C  0.70000000000000   0.10000000000000   0.70000000000000  
  C  0.70000000000000   0.10000000000000   0.90000000000000  
  C  0.70000000000000   0.30000000000000   0.10000000000000  
  C  0.70000000000000   0.30000000000000   0.30000000000000  
  C  0.70000000000000   0.30000000000000   0.50000000000000  
  C  0.70000000000000   0.30000000000000   0.70000000000000  
  C  0.70000000000000   0.30000000000000   0.90000000000000  
  C  0.70000000000000   0.50000000000000   0.10000000000000  
  C  0.70000000000000   0.50000000000000   0.30000000000000  
  C  0.70000000000000   0.50000000000000   0.50000000000000  
  C  0.70000000000000   0.50000000000000   0.70000000000000  
  C  0.70000000000000   0.50000000000000   0.90000000000000  
  C  0.70000000000000   0.70000000000000   0.10000000000000  
  C  0.70000000000000   0.70000000000000   0.30000000000000  
  C  0.70000000000000   0.70000000000000   0.50000000000000  
  C  0.70000000000000   0.70000000000000   0.70000000000000  
  C  0.70000000000000   0.70000000000000   0.90000000000000  
  C  0.70000000000000   0.90000000000000   0.10000000000000  
  C  0.70000000000000   0.90000000000000   0.30000000000000  
  C  0.70000000000000   0.90000000000000   0.50000000000000  
  C  0.70000000000000   0.90000000000000   0.70000000000000  
  C  0.70000000000000   0.90000000000000   0.90000000000000  
  C  0.90000000000000   0.10000000000000   0.10000000000000  
  C  0.90000000000000   0.10000000000000   0.30000000000000  
  C  0.90000000000000   0.10000000000000   0.50000000000000  
  C  0.90000000000000   0.10000000000000   0.70000000000000  
  C  0.90000000000000   0.10000000000000   0.90000000000000  
  C  0.90000000000000   0.30000000000000   0.10000000000000  
  C  0.90000000000000   0.30000000000000   0.30000000000000  
  C  0.90000000000000   0.30000000000000   0.50000000000000  
  C  0.90000000000000   0.30000000000000   0.70000000000000  
  C  0.90000000000000   0.30000000000000   0.90000000000000  
  C  0.90000000000000   0.50000000000000   0.10000000000000  
  C  0.90000000000000   0.50000000000000   0.30000000000000  
  C  0.90000000000000   0.50000000000000   0.50000000000000  
  C  0.90000000000000   0.50000000000000   0.70000000000000  
  C  0.90000000000000   0.50000000000000   0.90000000000000  
  C  0.90000000000000   0.70000000000000   0.10000000000000  
  C  0.90000000000000   0.70000000000000   0.30000000000000  
  C  0.90000000000000   0.70000000000000   0.50000000000000  
  C  0.90000000000000   0.70000000000000   0.70000000000000  
  C  0.90000000000000   0.70000000000000   0.90000000000000  
  C  0.90000000000000   0.90000000000000   0.10000000000000  
  C  0.90000000000000   0.90000000000000   0.30000000000000  
  C  0.90000000000000   0.90000000000000   0.50000000000000  
  C  0.90000000000000   0.90000000000000   0.70000000000000  
  C  0.90000000000000   0.90000000000000   0.90000000000000  
  C  0.15000000000000   0.15000000000000   0.15000000000000  
  C  0.15000000000000   0.15000000000000   0.35000000000000  
  C  0.15000000000000   0.15000000000000   0.55000000000000  
  C  0.15000000000000   0.15000000000000   0.75000000000000  
  C  0.15000000000000   0.15000000000000   0.95000000000000  
  C  0.15000000000000   0.35000000000000   0.15000000000000  
  C  0.15000000000000   0.35000000000000   0.35000000000000  
  C  0.15000000000000   0.35000000000000   0.55000000000000  
  C  0.15000000000000   0.35000000000000   0.75000000000000  
  C  0.15000000000000   0.35000000000000   0.95000000000000  
  C  0.15000000000000   0.55000000000000   0.15000000000000  
  C  0.15000000000000   0.55000000000000   0.35000000000000  
  C  0.15000000000000   0.55000000000000   0.55000000000000  
  C  0.15000000000000   0.55000000000000   0.75000000000000  
  C  0.15000000000000   0.55000000000000   0.95000000000000  
  C  0.15000000000000   0.75000000000000   0.15000000000000  
  C  0.15000000000000   0.75000000000000   0.35000000000000  
  C  0.15000000000000   0.75000000000000   0.55000000000000  
  C  0.15000000000000   0.75000000000000   0.75000000000000  
  C  0.15000000000000   0.75000000000000   0.95000000000000  
  C  0.15000000000000   0.95000000000000   0.15000000000000  
  C  0.15000000000000   0.95000000000000   0.35000000000000  
  C  0.15000000000000   0.95000000000000   0.55000000000000  
  C  0.15000000000000   0.95000000000000   0.75000000000000  
  C  0.15000000000000   0.95000000000000   0.95000000000000  
  C  0.35000000000000   0.15000000000000   0.15000000000000  
  C  0.35000000000000   0.15000000000000   0.35000000000000  
  C  0.35000000000000   0.15000000000000   0.55000000000000  
  C  0.35000000000000   0.15000000000000   0.75000000000000  
  C  0.35000000000000   0.15000000000000   0.95000000000000  
  C  0.35000000000000   0.35000000000000   0.15000000000000  
  C  0.35000000000000   0.35000000000000   0.35000000000000  
  C  0.35000000000000   0.35000000000000   0.55000000000000  
  C  0.35000000000000   0.35000000000000   0.75000000000000  
  C  0.35000000000000   0.35000000000000   0.95000000000000  
  C  0.35000000000000   0.55000000000000   0.15000000000000  
  C  0.35000000000000   0.55000000000000   0.35000000000000  
  C  0.35000000000000   0.55000000000000   0.55000000000000  
  C  0.35000000000000   0.55000000000000   0.75000000000000  
  C  0.35000000000000   0.55000000000000   0.95000000000000  
  C  0.35000000000000   0.75000000000000   0.15000000000000  
  C  0.35000000000000   0.75000000000000   0.35000000000000  
  C  0.35000000000000   0.75000000000000   0.55000000000000  
  C  0.35000000000000   0.75000000000000   0.75000000000000  
  C  0.35000000000000   0.75000000000000   0.95000000000000  
  C  0.35000000000000   0.95000000000000   0.15000000000000  
  C  0.35000000000000   0.95000000000000   0.35000000000000  
  C  0.35000000000000   0.95000000000000   0.55000000000000  
  C  0.35000000000000   0.95000000000000   0.75000000000000  
  C  0.35000000000000   0.95000000000000   0.95000000000000  
  C  0.55000000000000   0.15000000000000   0.15000000000000  
  C  0.55000000000000   0.15000000000000   0.35000000000000  
  C  0.55000000000000   0.15000000000000   0.55000000000000  
  C  0.55000000000000   0.15000000000000   0.75000000000000  
  C  0.55000000000000   0.15000000000000   0.95000000000000  
  C  0.55000000000000   0.35000000000000   0.15000000000000  
  C  0.55000000000000   0.35000000000000   0.35000000000000  
  C  0.55000000000000   0.35000000000000   0.55000000000000  
  C  0.55000000000000   0.35000000000000   0.75000000000000  
  C  0.55000000000000   0.35000000000000   0.95000000000000  
  C  0.55000000000000   0.55000000000000   0.15000000000000  
  C  0.55000000000000   0.55000000000000   0.35000000000000  
  C  0.55000000000000   0.55000000000000   0.55000000000000  
  C  0.55000000000000   0.55000000000000   0.75000000000000  
  C  0.55000000000000   0.55000000000000   0.95000000000000  
  C  0.55000000000000   0.75000000000000   0.15000000000000  
  C  0.55000000000000   0.75000000000000   0.35000000000000  
  C  0.55000000000000   0.75000000000000   0.55000000000000  
  C  0.55000000000000   0.75000000000000   0.75000000000000  
  C  0.55000000000000   0.75000000000000   0.95000000000000  
  C  0.55000000000000   0.95000000000000   0.15000000000000  
  C  0.55000000000000   0.95000000000000   0.35000000000000  
  C  0.55000000000000   0.95000000000000   0.55000000000000  
  C  0.55000000000000   0.95000000000000   0.75000000000000  
  C  0.55000000000000   0.95000000000000   0.95000000000000  
  C  0.75000000000000   0.15000000000000   0.15000000000000  
  C  0.75000000000000   0.15000000000000   0.35000000000000  
  C  0.75000000000000   0.15000000000000   0.55000000000000  
  C  0.75000000000000   0.15000000000000   0.75000000000000  
  C  0.75000000000000   0.15000000000000   0.95000000000000  
  C  0.75000000000000   0.35000000000000   0.15000000000000  
  C  0.75000000000000   0.35000000000000   0.35000000000000  
  C  0.75000000000000   0.35000000000000   0.55000000000000  
  C  0.75000000000000   0.35000000000000   0.75000000000000  
  C  0.75000000000000   0.35000000000000   0.95000000000000  
  C  0.75000000000000   0.55000000000000   0.15000000000000  
  C  0.75000000000000   0.55000000000000   0.35000000000000  
  C  0.75000000000000   0.55000000000000   0.55000000000000  
  C  0.75000000000000   0.55000000000000   0.75000000000000  
  C  0.75000000000000   0.55000000000000   0.95000000000000  
  C  0.75000000000000   0.75000000000000   0.15000000000000  
  C  0.75000000000000   0.75000000000000   0.35000000000000  
  C  0.75000000000000   0.75000000000000   0.55000000000000  
  C  0.75000000000000   0.75000000000000   0.75000000000000  
  C  0.75000000000000   0.75000000000000   0.95000000000000  
  C  0.75000000000000   0.95000000000000   0.15000000000000  
  C  0.75000000000000   0.95000000000000   0.35000000000000  
  C  0.75000000000000   0.95000000000000   0.55000000000000  
  C  0.75000000000000   0.95000000000000   0.75000000000000  
  C  0.75000000000000   0.95000000000000   0.95000000000000  
  C  0.95000000000000   0.15000000000000   0.15000000000000  
  C  0.95000000000000   0.15000000000000   0.35000000000000  
  C  0.95000000000000   0.15000000000000   0.55000000000000  
  C  0.95000000000000   0.15000000000000   0.75000000000000  
  C  0.95000000000000   0.15000000000000   0.95000000000000  
  C  0.95000000000000   0.35000000000000   0.15000000000000  
  C  0.95000000000000   0.35000000000000   0.35000000000000  
  C  0.95000000000000   0.35000000000000   0.55000000000000  
  C  0.95000000000000   0.35000000000000   0.75000000000000  
  C  0.95000000000000   0.35000000000000   0.95000000000000  
  C  0.95000000000000   0.55000000000000   0.15000000000000  
  C  0.95000000000000   0.55000000000000   0.35000000000000  
  C  0.95000000000000   0.55000000000000   0.55000000000000  
  C  0.95000000000000   0.55000000000000   0.75000000000000  
  C  0.95000000000000   0.55000000000000   0.95000000000000  
  C  0.95000000000000   0.75000000000000   0.15000000000000  
  C  0.95000000000000   0.75000000000000   0.35000000000000  
  C  0.95000000000000   0.75000000000000   0.55000000000000  
  C  0.95000000000000   0.75000000000000   0.75000000000000  
  C  0.95000000000000   0.75000000000000   0.95000000000000  
  C  0.95000000000000   0.95000000000000   0.15000000000000  
  C  0.95000000000000   0.95000000000000   0.35000000000000  
  C  0.95000000000000   0.95000000000000   0.55000000000000  
  C  0.95000000000000   0.95000000000000   0.75000000000000  
  C  0.95000000000000   0.95000000000000   0.95000000000000  
  K_POINTS gamma 
